nNurses = 199;
nHours = 35;
minHours = 6;
maxHours = 8;
maxConsec = 7;
maxPresence = 23;
demand = [41, 41, 45, 42, 43, 45, 42, 44, 43, 40, 44, 43, 42, 46, 41, 42, 39, 39, 44, 44, 45, 41, 42, 38, 42, 44, 43, 43, 43, 46, 43, 42, 37, 37, 41];
